p cnf 108 3216
4 7 11 16 22 29 37 46 56 67 79 92 106 121 137 154 172 191 0
8 12 17 23 30 38 47 57 68 80 93 107 122 138 155 173 192 212 0
13 18 24 31 39 48 58 69 81 94 108 123 139 156 174 193 213 234 0
19 25 32 40 49 59 70 82 95 109 124 140 157 175 194 214 235 257 0
26 33 41 50 60 71 83 96 110 125 141 158 176 195 215 236 258 281 0
34 42 51 61 72 84 97 111 126 142 159 177 196 216 237 259 282 306 0
-4 -8 0
-7 -12 0
-11 -17 0
-16 -23 0
-22 -30 0
-29 -38 0
-37 -47 0
-46 -57 0
-56 -68 0
-67 -80 0
-79 -93 0
-92 -107 0
-106 -122 0
-121 -138 0
-137 -155 0
-154 -173 0
-172 -192 0
-191 -212 0
-4 -13 0
-7 -18 0
-11 -24 0
-16 -31 0
-22 -39 0
-29 -48 0
-37 -58 0
-46 -69 0
-56 -81 0
-67 -94 0
-79 -108 0
-92 -123 0
-106 -139 0
-121 -156 0
-137 -174 0
-154 -193 0
-172 -213 0
-191 -234 0
-4 -19 0
-7 -25 0
-11 -32 0
-16 -40 0
-22 -49 0
-29 -59 0
-37 -70 0
-46 -82 0
-56 -95 0
-67 -109 0
-79 -124 0
-92 -140 0
-106 -157 0
-121 -175 0
-137 -194 0
-154 -214 0
-172 -235 0
-191 -257 0
-4 -26 0
-7 -33 0
-11 -41 0
-16 -50 0
-22 -60 0
-29 -71 0
-37 -83 0
-46 -96 0
-56 -110 0
-67 -125 0
-79 -141 0
-92 -158 0
-106 -176 0
-121 -195 0
-137 -215 0
-154 -236 0
-172 -258 0
-191 -281 0
-4 -34 0
-7 -42 0
-11 -51 0
-16 -61 0
-22 -72 0
-29 -84 0
-37 -97 0
-46 -111 0
-56 -126 0
-67 -142 0
-79 -159 0
-92 -177 0
-106 -196 0
-121 -216 0
-137 -237 0
-154 -259 0
-172 -282 0
-191 -306 0
-8 -13 0
-12 -18 0
-17 -24 0
-23 -31 0
-30 -39 0
-38 -48 0
-47 -58 0
-57 -69 0
-68 -81 0
-80 -94 0
-93 -108 0
-107 -123 0
-122 -139 0
-138 -156 0
-155 -174 0
-173 -193 0
-192 -213 0
-212 -234 0
-8 -19 0
-12 -25 0
-17 -32 0
-23 -40 0
-30 -49 0
-38 -59 0
-47 -70 0
-57 -82 0
-68 -95 0
-80 -109 0
-93 -124 0
-107 -140 0
-122 -157 0
-138 -175 0
-155 -194 0
-173 -214 0
-192 -235 0
-212 -257 0
-8 -26 0
-12 -33 0
-17 -41 0
-23 -50 0
-30 -60 0
-38 -71 0
-47 -83 0
-57 -96 0
-68 -110 0
-80 -125 0
-93 -141 0
-107 -158 0
-122 -176 0
-138 -195 0
-155 -215 0
-173 -236 0
-192 -258 0
-212 -281 0
-8 -34 0
-12 -42 0
-17 -51 0
-23 -61 0
-30 -72 0
-38 -84 0
-47 -97 0
-57 -111 0
-68 -126 0
-80 -142 0
-93 -159 0
-107 -177 0
-122 -196 0
-138 -216 0
-155 -237 0
-173 -259 0
-192 -282 0
-212 -306 0
-13 -19 0
-18 -25 0
-24 -32 0
-31 -40 0
-39 -49 0
-48 -59 0
-58 -70 0
-69 -82 0
-81 -95 0
-94 -109 0
-108 -124 0
-123 -140 0
-139 -157 0
-156 -175 0
-174 -194 0
-193 -214 0
-213 -235 0
-234 -257 0
-13 -26 0
-18 -33 0
-24 -41 0
-31 -50 0
-39 -60 0
-48 -71 0
-58 -83 0
-69 -96 0
-81 -110 0
-94 -125 0
-108 -141 0
-123 -158 0
-139 -176 0
-156 -195 0
-174 -215 0
-193 -236 0
-213 -258 0
-234 -281 0
-13 -34 0
-18 -42 0
-24 -51 0
-31 -61 0
-39 -72 0
-48 -84 0
-58 -97 0
-69 -111 0
-81 -126 0
-94 -142 0
-108 -159 0
-123 -177 0
-139 -196 0
-156 -216 0
-174 -237 0
-193 -259 0
-213 -282 0
-234 -306 0
-19 -26 0
-25 -33 0
-32 -41 0
-40 -50 0
-49 -60 0
-59 -71 0
-70 -83 0
-82 -96 0
-95 -110 0
-109 -125 0
-124 -141 0
-140 -158 0
-157 -176 0
-175 -195 0
-194 -215 0
-214 -236 0
-235 -258 0
-257 -281 0
-19 -34 0
-25 -42 0
-32 -51 0
-40 -61 0
-49 -72 0
-59 -84 0
-70 -97 0
-82 -111 0
-95 -126 0
-109 -142 0
-124 -159 0
-140 -177 0
-157 -196 0
-175 -216 0
-194 -237 0
-214 -259 0
-235 -282 0
-257 -306 0
-26 -34 0
-33 -42 0
-41 -51 0
-50 -61 0
-60 -72 0
-71 -84 0
-83 -97 0
-96 -111 0
-110 -126 0
-125 -142 0
-141 -159 0
-158 -177 0
-176 -196 0
-195 -216 0
-215 -237 0
-236 -259 0
-258 -282 0
-281 -306 0
-4 -17 0
-4 -23 0
-4 -38 0
-4 -80 0
-4 -93 0
-4 -107 0
-4 -155 0
-4 -192 0
-7 -30 0
-7 -38 0
-7 -57 0
-7 -93 0
-7 -122 0
-7 -138 0
-7 -155 0
-7 -173 0
-7 -192 0
-11 -30 0
-11 -38 0
-11 -47 0
-11 -57 0
-11 -80 0
-11 -93 0
-11 -107 0
-11 -122 0
-11 -138 0
-11 -155 0
-11 -173 0
-11 -192 0
-16 -30 0
-16 -38 0
-16 -47 0
-16 -57 0
-16 -93 0
-16 -107 0
-16 -138 0
-16 -212 0
-22 -47 0
-22 -68 0
-22 -93 0
-22 -107 0
-22 -122 0
-22 -173 0
-22 -192 0
-29 -68 0
-29 -80 0
-29 -107 0
-29 -122 0
-29 -155 0
-29 -173 0
-29 -192 0
-37 -68 0
-37 -80 0
-37 -107 0
-37 -122 0
-37 -138 0
-37 -155 0
-37 -173 0
-37 -192 0
-46 -68 0
-46 -80 0
-46 -93 0
-46 -107 0
-46 -138 0
-46 -155 0
-46 -192 0
-46 -212 0
-56 -80 0
-56 -93 0
-56 -107 0
-56 -122 0
-56 -155 0
-56 -212 0
-67 -93 0
-67 -107 0
-67 -138 0
-67 -173 0
-67 -192 0
-67 -212 0
-79 -107 0
-79 -122 0
-79 -138 0
-79 -155 0
-79 -173 0
-79 -212 0
-92 -138 0
-92 -155 0
-92 -192 0
-92 -212 0
-106 -155 0
-106 -173 0
-121 -173 0
-121 -192 0
-121 -212 0
-137 -173 0
-137 -192 0
-154 -192 0
-172 -212 0
-4 -24 0
-4 -31 0
-4 -48 0
-4 -94 0
-4 -108 0
-4 -123 0
-4 -174 0
-4 -213 0
-7 -39 0
-7 -48 0
-7 -69 0
-7 -108 0
-7 -139 0
-7 -156 0
-7 -174 0
-7 -193 0
-7 -213 0
-11 -39 0
-11 -48 0
-11 -58 0
-11 -69 0
-11 -94 0
-11 -108 0
-11 -123 0
-11 -139 0
-11 -156 0
-11 -174 0
-11 -193 0
-11 -213 0
-16 -39 0
-16 -48 0
-16 -58 0
-16 -69 0
-16 -108 0
-16 -123 0
-16 -156 0
-16 -234 0
-22 -58 0
-22 -81 0
-22 -108 0
-22 -123 0
-22 -139 0
-22 -193 0
-22 -213 0
-29 -81 0
-29 -94 0
-29 -123 0
-29 -139 0
-29 -174 0
-29 -193 0
-29 -213 0
-37 -81 0
-37 -94 0
-37 -123 0
-37 -139 0
-37 -156 0
-37 -174 0
-37 -193 0
-37 -213 0
-46 -81 0
-46 -94 0
-46 -108 0
-46 -123 0
-46 -156 0
-46 -174 0
-46 -213 0
-46 -234 0
-56 -94 0
-56 -108 0
-56 -123 0
-56 -139 0
-56 -174 0
-56 -234 0
-67 -108 0
-67 -123 0
-67 -156 0
-67 -193 0
-67 -213 0
-67 -234 0
-79 -123 0
-79 -139 0
-79 -156 0
-79 -174 0
-79 -193 0
-79 -234 0
-92 -156 0
-92 -174 0
-92 -213 0
-92 -234 0
-106 -174 0
-106 -193 0
-121 -193 0
-121 -213 0
-121 -234 0
-137 -193 0
-137 -213 0
-154 -213 0
-172 -234 0
-4 -32 0
-4 -40 0
-4 -59 0
-4 -109 0
-4 -124 0
-4 -140 0
-4 -194 0
-4 -235 0
-7 -49 0
-7 -59 0
-7 -82 0
-7 -124 0
-7 -157 0
-7 -175 0
-7 -194 0
-7 -214 0
-7 -235 0
-11 -49 0
-11 -59 0
-11 -70 0
-11 -82 0
-11 -109 0
-11 -124 0
-11 -140 0
-11 -157 0
-11 -175 0
-11 -194 0
-11 -214 0
-11 -235 0
-16 -49 0
-16 -59 0
-16 -70 0
-16 -82 0
-16 -124 0
-16 -140 0
-16 -175 0
-16 -257 0
-22 -70 0
-22 -95 0
-22 -124 0
-22 -140 0
-22 -157 0
-22 -214 0
-22 -235 0
-29 -95 0
-29 -109 0
-29 -140 0
-29 -157 0
-29 -194 0
-29 -214 0
-29 -235 0
-37 -95 0
-37 -109 0
-37 -140 0
-37 -157 0
-37 -175 0
-37 -194 0
-37 -214 0
-37 -235 0
-46 -95 0
-46 -109 0
-46 -124 0
-46 -140 0
-46 -175 0
-46 -194 0
-46 -235 0
-46 -257 0
-56 -109 0
-56 -124 0
-56 -140 0
-56 -157 0
-56 -194 0
-56 -257 0
-67 -124 0
-67 -140 0
-67 -175 0
-67 -214 0
-67 -235 0
-67 -257 0
-79 -140 0
-79 -157 0
-79 -175 0
-79 -194 0
-79 -214 0
-79 -257 0
-92 -175 0
-92 -194 0
-92 -235 0
-92 -257 0
-106 -194 0
-106 -214 0
-121 -214 0
-121 -235 0
-121 -257 0
-137 -214 0
-137 -235 0
-154 -235 0
-172 -257 0
-4 -41 0
-4 -50 0
-4 -71 0
-4 -125 0
-4 -141 0
-4 -158 0
-4 -215 0
-4 -258 0
-7 -60 0
-7 -71 0
-7 -96 0
-7 -141 0
-7 -176 0
-7 -195 0
-7 -215 0
-7 -236 0
-7 -258 0
-11 -60 0
-11 -71 0
-11 -83 0
-11 -96 0
-11 -125 0
-11 -141 0
-11 -158 0
-11 -176 0
-11 -195 0
-11 -215 0
-11 -236 0
-11 -258 0
-16 -60 0
-16 -71 0
-16 -83 0
-16 -96 0
-16 -141 0
-16 -158 0
-16 -195 0
-16 -281 0
-22 -83 0
-22 -110 0
-22 -141 0
-22 -158 0
-22 -176 0
-22 -236 0
-22 -258 0
-29 -110 0
-29 -125 0
-29 -158 0
-29 -176 0
-29 -215 0
-29 -236 0
-29 -258 0
-37 -110 0
-37 -125 0
-37 -158 0
-37 -176 0
-37 -195 0
-37 -215 0
-37 -236 0
-37 -258 0
-46 -110 0
-46 -125 0
-46 -141 0
-46 -158 0
-46 -195 0
-46 -215 0
-46 -258 0
-46 -281 0
-56 -125 0
-56 -141 0
-56 -158 0
-56 -176 0
-56 -215 0
-56 -281 0
-67 -141 0
-67 -158 0
-67 -195 0
-67 -236 0
-67 -258 0
-67 -281 0
-79 -158 0
-79 -176 0
-79 -195 0
-79 -215 0
-79 -236 0
-79 -281 0
-92 -195 0
-92 -215 0
-92 -258 0
-92 -281 0
-106 -215 0
-106 -236 0
-121 -236 0
-121 -258 0
-121 -281 0
-137 -236 0
-137 -258 0
-154 -258 0
-172 -281 0
-4 -51 0
-4 -61 0
-4 -84 0
-4 -142 0
-4 -159 0
-4 -177 0
-4 -237 0
-4 -282 0
-7 -72 0
-7 -84 0
-7 -111 0
-7 -159 0
-7 -196 0
-7 -216 0
-7 -237 0
-7 -259 0
-7 -282 0
-11 -72 0
-11 -84 0
-11 -97 0
-11 -111 0
-11 -142 0
-11 -159 0
-11 -177 0
-11 -196 0
-11 -216 0
-11 -237 0
-11 -259 0
-11 -282 0
-16 -72 0
-16 -84 0
-16 -97 0
-16 -111 0
-16 -159 0
-16 -177 0
-16 -216 0
-16 -306 0
-22 -97 0
-22 -126 0
-22 -159 0
-22 -177 0
-22 -196 0
-22 -259 0
-22 -282 0
-29 -126 0
-29 -142 0
-29 -177 0
-29 -196 0
-29 -237 0
-29 -259 0
-29 -282 0
-37 -126 0
-37 -142 0
-37 -177 0
-37 -196 0
-37 -216 0
-37 -237 0
-37 -259 0
-37 -282 0
-46 -126 0
-46 -142 0
-46 -159 0
-46 -177 0
-46 -216 0
-46 -237 0
-46 -282 0
-46 -306 0
-56 -142 0
-56 -159 0
-56 -177 0
-56 -196 0
-56 -237 0
-56 -306 0
-67 -159 0
-67 -177 0
-67 -216 0
-67 -259 0
-67 -282 0
-67 -306 0
-79 -177 0
-79 -196 0
-79 -216 0
-79 -237 0
-79 -259 0
-79 -306 0
-92 -216 0
-92 -237 0
-92 -282 0
-92 -306 0
-106 -237 0
-106 -259 0
-121 -259 0
-121 -282 0
-121 -306 0
-137 -259 0
-137 -282 0
-154 -282 0
-172 -306 0
-8 -11 0
-8 -16 0
-8 -29 0
-8 -67 0
-8 -79 0
-8 -92 0
-8 -137 0
-8 -172 0
-12 -22 0
-12 -29 0
-12 -46 0
-12 -79 0
-12 -106 0
-12 -121 0
-12 -137 0
-12 -154 0
-12 -172 0
-17 -22 0
-17 -29 0
-17 -37 0
-17 -46 0
-17 -67 0
-17 -79 0
-17 -92 0
-17 -106 0
-17 -121 0
-17 -137 0
-17 -154 0
-17 -172 0
-23 -22 0
-23 -29 0
-23 -37 0
-23 -46 0
-23 -79 0
-23 -92 0
-23 -121 0
-23 -191 0
-30 -37 0
-30 -56 0
-30 -79 0
-30 -92 0
-30 -106 0
-30 -154 0
-30 -172 0
-38 -56 0
-38 -67 0
-38 -92 0
-38 -106 0
-38 -137 0
-38 -154 0
-38 -172 0
-47 -56 0
-47 -67 0
-47 -92 0
-47 -106 0
-47 -121 0
-47 -137 0
-47 -154 0
-47 -172 0
-57 -56 0
-57 -67 0
-57 -79 0
-57 -92 0
-57 -121 0
-57 -137 0
-57 -172 0
-57 -191 0
-68 -67 0
-68 -79 0
-68 -92 0
-68 -106 0
-68 -137 0
-68 -191 0
-80 -79 0
-80 -92 0
-80 -121 0
-80 -154 0
-80 -172 0
-80 -191 0
-93 -92 0
-93 -106 0
-93 -121 0
-93 -137 0
-93 -154 0
-93 -191 0
-107 -121 0
-107 -137 0
-107 -172 0
-107 -191 0
-122 -137 0
-122 -154 0
-138 -154 0
-138 -172 0
-138 -191 0
-155 -154 0
-155 -172 0
-173 -172 0
-192 -191 0
-8 -24 0
-8 -31 0
-8 -48 0
-8 -94 0
-8 -108 0
-8 -123 0
-8 -174 0
-8 -213 0
-12 -39 0
-12 -48 0
-12 -69 0
-12 -108 0
-12 -139 0
-12 -156 0
-12 -174 0
-12 -193 0
-12 -213 0
-17 -39 0
-17 -48 0
-17 -58 0
-17 -69 0
-17 -94 0
-17 -108 0
-17 -123 0
-17 -139 0
-17 -156 0
-17 -174 0
-17 -193 0
-17 -213 0
-23 -39 0
-23 -48 0
-23 -58 0
-23 -69 0
-23 -108 0
-23 -123 0
-23 -156 0
-23 -234 0
-30 -58 0
-30 -81 0
-30 -108 0
-30 -123 0
-30 -139 0
-30 -193 0
-30 -213 0
-38 -81 0
-38 -94 0
-38 -123 0
-38 -139 0
-38 -174 0
-38 -193 0
-38 -213 0
-47 -81 0
-47 -94 0
-47 -123 0
-47 -139 0
-47 -156 0
-47 -174 0
-47 -193 0
-47 -213 0
-57 -81 0
-57 -94 0
-57 -108 0
-57 -123 0
-57 -156 0
-57 -174 0
-57 -213 0
-57 -234 0
-68 -94 0
-68 -108 0
-68 -123 0
-68 -139 0
-68 -174 0
-68 -234 0
-80 -108 0
-80 -123 0
-80 -156 0
-80 -193 0
-80 -213 0
-80 -234 0
-93 -123 0
-93 -139 0
-93 -156 0
-93 -174 0
-93 -193 0
-93 -234 0
-107 -156 0
-107 -174 0
-107 -213 0
-107 -234 0
-122 -174 0
-122 -193 0
-138 -193 0
-138 -213 0
-138 -234 0
-155 -193 0
-155 -213 0
-173 -213 0
-192 -234 0
-8 -32 0
-8 -40 0
-8 -59 0
-8 -109 0
-8 -124 0
-8 -140 0
-8 -194 0
-8 -235 0
-12 -49 0
-12 -59 0
-12 -82 0
-12 -124 0
-12 -157 0
-12 -175 0
-12 -194 0
-12 -214 0
-12 -235 0
-17 -49 0
-17 -59 0
-17 -70 0
-17 -82 0
-17 -109 0
-17 -124 0
-17 -140 0
-17 -157 0
-17 -175 0
-17 -194 0
-17 -214 0
-17 -235 0
-23 -49 0
-23 -59 0
-23 -70 0
-23 -82 0
-23 -124 0
-23 -140 0
-23 -175 0
-23 -257 0
-30 -70 0
-30 -95 0
-30 -124 0
-30 -140 0
-30 -157 0
-30 -214 0
-30 -235 0
-38 -95 0
-38 -109 0
-38 -140 0
-38 -157 0
-38 -194 0
-38 -214 0
-38 -235 0
-47 -95 0
-47 -109 0
-47 -140 0
-47 -157 0
-47 -175 0
-47 -194 0
-47 -214 0
-47 -235 0
-57 -95 0
-57 -109 0
-57 -124 0
-57 -140 0
-57 -175 0
-57 -194 0
-57 -235 0
-57 -257 0
-68 -109 0
-68 -124 0
-68 -140 0
-68 -157 0
-68 -194 0
-68 -257 0
-80 -124 0
-80 -140 0
-80 -175 0
-80 -214 0
-80 -235 0
-80 -257 0
-93 -140 0
-93 -157 0
-93 -175 0
-93 -194 0
-93 -214 0
-93 -257 0
-107 -175 0
-107 -194 0
-107 -235 0
-107 -257 0
-122 -194 0
-122 -214 0
-138 -214 0
-138 -235 0
-138 -257 0
-155 -214 0
-155 -235 0
-173 -235 0
-192 -257 0
-8 -41 0
-8 -50 0
-8 -71 0
-8 -125 0
-8 -141 0
-8 -158 0
-8 -215 0
-8 -258 0
-12 -60 0
-12 -71 0
-12 -96 0
-12 -141 0
-12 -176 0
-12 -195 0
-12 -215 0
-12 -236 0
-12 -258 0
-17 -60 0
-17 -71 0
-17 -83 0
-17 -96 0
-17 -125 0
-17 -141 0
-17 -158 0
-17 -176 0
-17 -195 0
-17 -215 0
-17 -236 0
-17 -258 0
-23 -60 0
-23 -71 0
-23 -83 0
-23 -96 0
-23 -141 0
-23 -158 0
-23 -195 0
-23 -281 0
-30 -83 0
-30 -110 0
-30 -141 0
-30 -158 0
-30 -176 0
-30 -236 0
-30 -258 0
-38 -110 0
-38 -125 0
-38 -158 0
-38 -176 0
-38 -215 0
-38 -236 0
-38 -258 0
-47 -110 0
-47 -125 0
-47 -158 0
-47 -176 0
-47 -195 0
-47 -215 0
-47 -236 0
-47 -258 0
-57 -110 0
-57 -125 0
-57 -141 0
-57 -158 0
-57 -195 0
-57 -215 0
-57 -258 0
-57 -281 0
-68 -125 0
-68 -141 0
-68 -158 0
-68 -176 0
-68 -215 0
-68 -281 0
-80 -141 0
-80 -158 0
-80 -195 0
-80 -236 0
-80 -258 0
-80 -281 0
-93 -158 0
-93 -176 0
-93 -195 0
-93 -215 0
-93 -236 0
-93 -281 0
-107 -195 0
-107 -215 0
-107 -258 0
-107 -281 0
-122 -215 0
-122 -236 0
-138 -236 0
-138 -258 0
-138 -281 0
-155 -236 0
-155 -258 0
-173 -258 0
-192 -281 0
-8 -51 0
-8 -61 0
-8 -84 0
-8 -142 0
-8 -159 0
-8 -177 0
-8 -237 0
-8 -282 0
-12 -72 0
-12 -84 0
-12 -111 0
-12 -159 0
-12 -196 0
-12 -216 0
-12 -237 0
-12 -259 0
-12 -282 0
-17 -72 0
-17 -84 0
-17 -97 0
-17 -111 0
-17 -142 0
-17 -159 0
-17 -177 0
-17 -196 0
-17 -216 0
-17 -237 0
-17 -259 0
-17 -282 0
-23 -72 0
-23 -84 0
-23 -97 0
-23 -111 0
-23 -159 0
-23 -177 0
-23 -216 0
-23 -306 0
-30 -97 0
-30 -126 0
-30 -159 0
-30 -177 0
-30 -196 0
-30 -259 0
-30 -282 0
-38 -126 0
-38 -142 0
-38 -177 0
-38 -196 0
-38 -237 0
-38 -259 0
-38 -282 0
-47 -126 0
-47 -142 0
-47 -177 0
-47 -196 0
-47 -216 0
-47 -237 0
-47 -259 0
-47 -282 0
-57 -126 0
-57 -142 0
-57 -159 0
-57 -177 0
-57 -216 0
-57 -237 0
-57 -282 0
-57 -306 0
-68 -142 0
-68 -159 0
-68 -177 0
-68 -196 0
-68 -237 0
-68 -306 0
-80 -159 0
-80 -177 0
-80 -216 0
-80 -259 0
-80 -282 0
-80 -306 0
-93 -177 0
-93 -196 0
-93 -216 0
-93 -237 0
-93 -259 0
-93 -306 0
-107 -216 0
-107 -237 0
-107 -282 0
-107 -306 0
-122 -237 0
-122 -259 0
-138 -259 0
-138 -282 0
-138 -306 0
-155 -259 0
-155 -282 0
-173 -282 0
-192 -306 0
-13 -11 0
-13 -16 0
-13 -29 0
-13 -67 0
-13 -79 0
-13 -92 0
-13 -137 0
-13 -172 0
-18 -22 0
-18 -29 0
-18 -46 0
-18 -79 0
-18 -106 0
-18 -121 0
-18 -137 0
-18 -154 0
-18 -172 0
-24 -22 0
-24 -29 0
-24 -37 0
-24 -46 0
-24 -67 0
-24 -79 0
-24 -92 0
-24 -106 0
-24 -121 0
-24 -137 0
-24 -154 0
-24 -172 0
-31 -22 0
-31 -29 0
-31 -37 0
-31 -46 0
-31 -79 0
-31 -92 0
-31 -121 0
-31 -191 0
-39 -37 0
-39 -56 0
-39 -79 0
-39 -92 0
-39 -106 0
-39 -154 0
-39 -172 0
-48 -56 0
-48 -67 0
-48 -92 0
-48 -106 0
-48 -137 0
-48 -154 0
-48 -172 0
-58 -56 0
-58 -67 0
-58 -92 0
-58 -106 0
-58 -121 0
-58 -137 0
-58 -154 0
-58 -172 0
-69 -56 0
-69 -67 0
-69 -79 0
-69 -92 0
-69 -121 0
-69 -137 0
-69 -172 0
-69 -191 0
-81 -67 0
-81 -79 0
-81 -92 0
-81 -106 0
-81 -137 0
-81 -191 0
-94 -79 0
-94 -92 0
-94 -121 0
-94 -154 0
-94 -172 0
-94 -191 0
-108 -92 0
-108 -106 0
-108 -121 0
-108 -137 0
-108 -154 0
-108 -191 0
-123 -121 0
-123 -137 0
-123 -172 0
-123 -191 0
-139 -137 0
-139 -154 0
-156 -154 0
-156 -172 0
-156 -191 0
-174 -154 0
-174 -172 0
-193 -172 0
-213 -191 0
-13 -17 0
-13 -23 0
-13 -38 0
-13 -80 0
-13 -93 0
-13 -107 0
-13 -155 0
-13 -192 0
-18 -30 0
-18 -38 0
-18 -57 0
-18 -93 0
-18 -122 0
-18 -138 0
-18 -155 0
-18 -173 0
-18 -192 0
-24 -30 0
-24 -38 0
-24 -47 0
-24 -57 0
-24 -80 0
-24 -93 0
-24 -107 0
-24 -122 0
-24 -138 0
-24 -155 0
-24 -173 0
-24 -192 0
-31 -30 0
-31 -38 0
-31 -47 0
-31 -57 0
-31 -93 0
-31 -107 0
-31 -138 0
-31 -212 0
-39 -47 0
-39 -68 0
-39 -93 0
-39 -107 0
-39 -122 0
-39 -173 0
-39 -192 0
-48 -68 0
-48 -80 0
-48 -107 0
-48 -122 0
-48 -155 0
-48 -173 0
-48 -192 0
-58 -68 0
-58 -80 0
-58 -107 0
-58 -122 0
-58 -138 0
-58 -155 0
-58 -173 0
-58 -192 0
-69 -68 0
-69 -80 0
-69 -93 0
-69 -107 0
-69 -138 0
-69 -155 0
-69 -192 0
-69 -212 0
-81 -80 0
-81 -93 0
-81 -107 0
-81 -122 0
-81 -155 0
-81 -212 0
-94 -93 0
-94 -107 0
-94 -138 0
-94 -173 0
-94 -192 0
-94 -212 0
-108 -107 0
-108 -122 0
-108 -138 0
-108 -155 0
-108 -173 0
-108 -212 0
-123 -138 0
-123 -155 0
-123 -192 0
-123 -212 0
-139 -155 0
-139 -173 0
-156 -173 0
-156 -192 0
-156 -212 0
-174 -173 0
-174 -192 0
-193 -192 0
-213 -212 0
-13 -32 0
-13 -40 0
-13 -59 0
-13 -109 0
-13 -124 0
-13 -140 0
-13 -194 0
-13 -235 0
-18 -49 0
-18 -59 0
-18 -82 0
-18 -124 0
-18 -157 0
-18 -175 0
-18 -194 0
-18 -214 0
-18 -235 0
-24 -49 0
-24 -59 0
-24 -70 0
-24 -82 0
-24 -109 0
-24 -124 0
-24 -140 0
-24 -157 0
-24 -175 0
-24 -194 0
-24 -214 0
-24 -235 0
-31 -49 0
-31 -59 0
-31 -70 0
-31 -82 0
-31 -124 0
-31 -140 0
-31 -175 0
-31 -257 0
-39 -70 0
-39 -95 0
-39 -124 0
-39 -140 0
-39 -157 0
-39 -214 0
-39 -235 0
-48 -95 0
-48 -109 0
-48 -140 0
-48 -157 0
-48 -194 0
-48 -214 0
-48 -235 0
-58 -95 0
-58 -109 0
-58 -140 0
-58 -157 0
-58 -175 0
-58 -194 0
-58 -214 0
-58 -235 0
-69 -95 0
-69 -109 0
-69 -124 0
-69 -140 0
-69 -175 0
-69 -194 0
-69 -235 0
-69 -257 0
-81 -109 0
-81 -124 0
-81 -140 0
-81 -157 0
-81 -194 0
-81 -257 0
-94 -124 0
-94 -140 0
-94 -175 0
-94 -214 0
-94 -235 0
-94 -257 0
-108 -140 0
-108 -157 0
-108 -175 0
-108 -194 0
-108 -214 0
-108 -257 0
-123 -175 0
-123 -194 0
-123 -235 0
-123 -257 0
-139 -194 0
-139 -214 0
-156 -214 0
-156 -235 0
-156 -257 0
-174 -214 0
-174 -235 0
-193 -235 0
-213 -257 0
-13 -41 0
-13 -50 0
-13 -71 0
-13 -125 0
-13 -141 0
-13 -158 0
-13 -215 0
-13 -258 0
-18 -60 0
-18 -71 0
-18 -96 0
-18 -141 0
-18 -176 0
-18 -195 0
-18 -215 0
-18 -236 0
-18 -258 0
-24 -60 0
-24 -71 0
-24 -83 0
-24 -96 0
-24 -125 0
-24 -141 0
-24 -158 0
-24 -176 0
-24 -195 0
-24 -215 0
-24 -236 0
-24 -258 0
-31 -60 0
-31 -71 0
-31 -83 0
-31 -96 0
-31 -141 0
-31 -158 0
-31 -195 0
-31 -281 0
-39 -83 0
-39 -110 0
-39 -141 0
-39 -158 0
-39 -176 0
-39 -236 0
-39 -258 0
-48 -110 0
-48 -125 0
-48 -158 0
-48 -176 0
-48 -215 0
-48 -236 0
-48 -258 0
-58 -110 0
-58 -125 0
-58 -158 0
-58 -176 0
-58 -195 0
-58 -215 0
-58 -236 0
-58 -258 0
-69 -110 0
-69 -125 0
-69 -141 0
-69 -158 0
-69 -195 0
-69 -215 0
-69 -258 0
-69 -281 0
-81 -125 0
-81 -141 0
-81 -158 0
-81 -176 0
-81 -215 0
-81 -281 0
-94 -141 0
-94 -158 0
-94 -195 0
-94 -236 0
-94 -258 0
-94 -281 0
-108 -158 0
-108 -176 0
-108 -195 0
-108 -215 0
-108 -236 0
-108 -281 0
-123 -195 0
-123 -215 0
-123 -258 0
-123 -281 0
-139 -215 0
-139 -236 0
-156 -236 0
-156 -258 0
-156 -281 0
-174 -236 0
-174 -258 0
-193 -258 0
-213 -281 0
-13 -51 0
-13 -61 0
-13 -84 0
-13 -142 0
-13 -159 0
-13 -177 0
-13 -237 0
-13 -282 0
-18 -72 0
-18 -84 0
-18 -111 0
-18 -159 0
-18 -196 0
-18 -216 0
-18 -237 0
-18 -259 0
-18 -282 0
-24 -72 0
-24 -84 0
-24 -97 0
-24 -111 0
-24 -142 0
-24 -159 0
-24 -177 0
-24 -196 0
-24 -216 0
-24 -237 0
-24 -259 0
-24 -282 0
-31 -72 0
-31 -84 0
-31 -97 0
-31 -111 0
-31 -159 0
-31 -177 0
-31 -216 0
-31 -306 0
-39 -97 0
-39 -126 0
-39 -159 0
-39 -177 0
-39 -196 0
-39 -259 0
-39 -282 0
-48 -126 0
-48 -142 0
-48 -177 0
-48 -196 0
-48 -237 0
-48 -259 0
-48 -282 0
-58 -126 0
-58 -142 0
-58 -177 0
-58 -196 0
-58 -216 0
-58 -237 0
-58 -259 0
-58 -282 0
-69 -126 0
-69 -142 0
-69 -159 0
-69 -177 0
-69 -216 0
-69 -237 0
-69 -282 0
-69 -306 0
-81 -142 0
-81 -159 0
-81 -177 0
-81 -196 0
-81 -237 0
-81 -306 0
-94 -159 0
-94 -177 0
-94 -216 0
-94 -259 0
-94 -282 0
-94 -306 0
-108 -177 0
-108 -196 0
-108 -216 0
-108 -237 0
-108 -259 0
-108 -306 0
-123 -216 0
-123 -237 0
-123 -282 0
-123 -306 0
-139 -237 0
-139 -259 0
-156 -259 0
-156 -282 0
-156 -306 0
-174 -259 0
-174 -282 0
-193 -282 0
-213 -306 0
-19 -11 0
-19 -16 0
-19 -29 0
-19 -67 0
-19 -79 0
-19 -92 0
-19 -137 0
-19 -172 0
-25 -22 0
-25 -29 0
-25 -46 0
-25 -79 0
-25 -106 0
-25 -121 0
-25 -137 0
-25 -154 0
-25 -172 0
-32 -22 0
-32 -29 0
-32 -37 0
-32 -46 0
-32 -67 0
-32 -79 0
-32 -92 0
-32 -106 0
-32 -121 0
-32 -137 0
-32 -154 0
-32 -172 0
-40 -22 0
-40 -29 0
-40 -37 0
-40 -46 0
-40 -79 0
-40 -92 0
-40 -121 0
-40 -191 0
-49 -37 0
-49 -56 0
-49 -79 0
-49 -92 0
-49 -106 0
-49 -154 0
-49 -172 0
-59 -56 0
-59 -67 0
-59 -92 0
-59 -106 0
-59 -137 0
-59 -154 0
-59 -172 0
-70 -56 0
-70 -67 0
-70 -92 0
-70 -106 0
-70 -121 0
-70 -137 0
-70 -154 0
-70 -172 0
-82 -56 0
-82 -67 0
-82 -79 0
-82 -92 0
-82 -121 0
-82 -137 0
-82 -172 0
-82 -191 0
-95 -67 0
-95 -79 0
-95 -92 0
-95 -106 0
-95 -137 0
-95 -191 0
-109 -79 0
-109 -92 0
-109 -121 0
-109 -154 0
-109 -172 0
-109 -191 0
-124 -92 0
-124 -106 0
-124 -121 0
-124 -137 0
-124 -154 0
-124 -191 0
-140 -121 0
-140 -137 0
-140 -172 0
-140 -191 0
-157 -137 0
-157 -154 0
-175 -154 0
-175 -172 0
-175 -191 0
-194 -154 0
-194 -172 0
-214 -172 0
-235 -191 0
-19 -17 0
-19 -23 0
-19 -38 0
-19 -80 0
-19 -93 0
-19 -107 0
-19 -155 0
-19 -192 0
-25 -30 0
-25 -38 0
-25 -57 0
-25 -93 0
-25 -122 0
-25 -138 0
-25 -155 0
-25 -173 0
-25 -192 0
-32 -30 0
-32 -38 0
-32 -47 0
-32 -57 0
-32 -80 0
-32 -93 0
-32 -107 0
-32 -122 0
-32 -138 0
-32 -155 0
-32 -173 0
-32 -192 0
-40 -30 0
-40 -38 0
-40 -47 0
-40 -57 0
-40 -93 0
-40 -107 0
-40 -138 0
-40 -212 0
-49 -47 0
-49 -68 0
-49 -93 0
-49 -107 0
-49 -122 0
-49 -173 0
-49 -192 0
-59 -68 0
-59 -80 0
-59 -107 0
-59 -122 0
-59 -155 0
-59 -173 0
-59 -192 0
-70 -68 0
-70 -80 0
-70 -107 0
-70 -122 0
-70 -138 0
-70 -155 0
-70 -173 0
-70 -192 0
-82 -68 0
-82 -80 0
-82 -93 0
-82 -107 0
-82 -138 0
-82 -155 0
-82 -192 0
-82 -212 0
-95 -80 0
-95 -93 0
-95 -107 0
-95 -122 0
-95 -155 0
-95 -212 0
-109 -93 0
-109 -107 0
-109 -138 0
-109 -173 0
-109 -192 0
-109 -212 0
-124 -107 0
-124 -122 0
-124 -138 0
-124 -155 0
-124 -173 0
-124 -212 0
-140 -138 0
-140 -155 0
-140 -192 0
-140 -212 0
-157 -155 0
-157 -173 0
-175 -173 0
-175 -192 0
-175 -212 0
-194 -173 0
-194 -192 0
-214 -192 0
-235 -212 0
-19 -24 0
-19 -31 0
-19 -48 0
-19 -94 0
-19 -108 0
-19 -123 0
-19 -174 0
-19 -213 0
-25 -39 0
-25 -48 0
-25 -69 0
-25 -108 0
-25 -139 0
-25 -156 0
-25 -174 0
-25 -193 0
-25 -213 0
-32 -39 0
-32 -48 0
-32 -58 0
-32 -69 0
-32 -94 0
-32 -108 0
-32 -123 0
-32 -139 0
-32 -156 0
-32 -174 0
-32 -193 0
-32 -213 0
-40 -39 0
-40 -48 0
-40 -58 0
-40 -69 0
-40 -108 0
-40 -123 0
-40 -156 0
-40 -234 0
-49 -58 0
-49 -81 0
-49 -108 0
-49 -123 0
-49 -139 0
-49 -193 0
-49 -213 0
-59 -81 0
-59 -94 0
-59 -123 0
-59 -139 0
-59 -174 0
-59 -193 0
-59 -213 0
-70 -81 0
-70 -94 0
-70 -123 0
-70 -139 0
-70 -156 0
-70 -174 0
-70 -193 0
-70 -213 0
-82 -81 0
-82 -94 0
-82 -108 0
-82 -123 0
-82 -156 0
-82 -174 0
-82 -213 0
-82 -234 0
-95 -94 0
-95 -108 0
-95 -123 0
-95 -139 0
-95 -174 0
-95 -234 0
-109 -108 0
-109 -123 0
-109 -156 0
-109 -193 0
-109 -213 0
-109 -234 0
-124 -123 0
-124 -139 0
-124 -156 0
-124 -174 0
-124 -193 0
-124 -234 0
-140 -156 0
-140 -174 0
-140 -213 0
-140 -234 0
-157 -174 0
-157 -193 0
-175 -193 0
-175 -213 0
-175 -234 0
-194 -193 0
-194 -213 0
-214 -213 0
-235 -234 0
-19 -41 0
-19 -50 0
-19 -71 0
-19 -125 0
-19 -141 0
-19 -158 0
-19 -215 0
-19 -258 0
-25 -60 0
-25 -71 0
-25 -96 0
-25 -141 0
-25 -176 0
-25 -195 0
-25 -215 0
-25 -236 0
-25 -258 0
-32 -60 0
-32 -71 0
-32 -83 0
-32 -96 0
-32 -125 0
-32 -141 0
-32 -158 0
-32 -176 0
-32 -195 0
-32 -215 0
-32 -236 0
-32 -258 0
-40 -60 0
-40 -71 0
-40 -83 0
-40 -96 0
-40 -141 0
-40 -158 0
-40 -195 0
-40 -281 0
-49 -83 0
-49 -110 0
-49 -141 0
-49 -158 0
-49 -176 0
-49 -236 0
-49 -258 0
-59 -110 0
-59 -125 0
-59 -158 0
-59 -176 0
-59 -215 0
-59 -236 0
-59 -258 0
-70 -110 0
-70 -125 0
-70 -158 0
-70 -176 0
-70 -195 0
-70 -215 0
-70 -236 0
-70 -258 0
-82 -110 0
-82 -125 0
-82 -141 0
-82 -158 0
-82 -195 0
-82 -215 0
-82 -258 0
-82 -281 0
-95 -125 0
-95 -141 0
-95 -158 0
-95 -176 0
-95 -215 0
-95 -281 0
-109 -141 0
-109 -158 0
-109 -195 0
-109 -236 0
-109 -258 0
-109 -281 0
-124 -158 0
-124 -176 0
-124 -195 0
-124 -215 0
-124 -236 0
-124 -281 0
-140 -195 0
-140 -215 0
-140 -258 0
-140 -281 0
-157 -215 0
-157 -236 0
-175 -236 0
-175 -258 0
-175 -281 0
-194 -236 0
-194 -258 0
-214 -258 0
-235 -281 0
-19 -51 0
-19 -61 0
-19 -84 0
-19 -142 0
-19 -159 0
-19 -177 0
-19 -237 0
-19 -282 0
-25 -72 0
-25 -84 0
-25 -111 0
-25 -159 0
-25 -196 0
-25 -216 0
-25 -237 0
-25 -259 0
-25 -282 0
-32 -72 0
-32 -84 0
-32 -97 0
-32 -111 0
-32 -142 0
-32 -159 0
-32 -177 0
-32 -196 0
-32 -216 0
-32 -237 0
-32 -259 0
-32 -282 0
-40 -72 0
-40 -84 0
-40 -97 0
-40 -111 0
-40 -159 0
-40 -177 0
-40 -216 0
-40 -306 0
-49 -97 0
-49 -126 0
-49 -159 0
-49 -177 0
-49 -196 0
-49 -259 0
-49 -282 0
-59 -126 0
-59 -142 0
-59 -177 0
-59 -196 0
-59 -237 0
-59 -259 0
-59 -282 0
-70 -126 0
-70 -142 0
-70 -177 0
-70 -196 0
-70 -216 0
-70 -237 0
-70 -259 0
-70 -282 0
-82 -126 0
-82 -142 0
-82 -159 0
-82 -177 0
-82 -216 0
-82 -237 0
-82 -282 0
-82 -306 0
-95 -142 0
-95 -159 0
-95 -177 0
-95 -196 0
-95 -237 0
-95 -306 0
-109 -159 0
-109 -177 0
-109 -216 0
-109 -259 0
-109 -282 0
-109 -306 0
-124 -177 0
-124 -196 0
-124 -216 0
-124 -237 0
-124 -259 0
-124 -306 0
-140 -216 0
-140 -237 0
-140 -282 0
-140 -306 0
-157 -237 0
-157 -259 0
-175 -259 0
-175 -282 0
-175 -306 0
-194 -259 0
-194 -282 0
-214 -282 0
-235 -306 0
-26 -11 0
-26 -16 0
-26 -29 0
-26 -67 0
-26 -79 0
-26 -92 0
-26 -137 0
-26 -172 0
-33 -22 0
-33 -29 0
-33 -46 0
-33 -79 0
-33 -106 0
-33 -121 0
-33 -137 0
-33 -154 0
-33 -172 0
-41 -22 0
-41 -29 0
-41 -37 0
-41 -46 0
-41 -67 0
-41 -79 0
-41 -92 0
-41 -106 0
-41 -121 0
-41 -137 0
-41 -154 0
-41 -172 0
-50 -22 0
-50 -29 0
-50 -37 0
-50 -46 0
-50 -79 0
-50 -92 0
-50 -121 0
-50 -191 0
-60 -37 0
-60 -56 0
-60 -79 0
-60 -92 0
-60 -106 0
-60 -154 0
-60 -172 0
-71 -56 0
-71 -67 0
-71 -92 0
-71 -106 0
-71 -137 0
-71 -154 0
-71 -172 0
-83 -56 0
-83 -67 0
-83 -92 0
-83 -106 0
-83 -121 0
-83 -137 0
-83 -154 0
-83 -172 0
-96 -56 0
-96 -67 0
-96 -79 0
-96 -92 0
-96 -121 0
-96 -137 0
-96 -172 0
-96 -191 0
-110 -67 0
-110 -79 0
-110 -92 0
-110 -106 0
-110 -137 0
-110 -191 0
-125 -79 0
-125 -92 0
-125 -121 0
-125 -154 0
-125 -172 0
-125 -191 0
-141 -92 0
-141 -106 0
-141 -121 0
-141 -137 0
-141 -154 0
-141 -191 0
-158 -121 0
-158 -137 0
-158 -172 0
-158 -191 0
-176 -137 0
-176 -154 0
-195 -154 0
-195 -172 0
-195 -191 0
-215 -154 0
-215 -172 0
-236 -172 0
-258 -191 0
-26 -17 0
-26 -23 0
-26 -38 0
-26 -80 0
-26 -93 0
-26 -107 0
-26 -155 0
-26 -192 0
-33 -30 0
-33 -38 0
-33 -57 0
-33 -93 0
-33 -122 0
-33 -138 0
-33 -155 0
-33 -173 0
-33 -192 0
-41 -30 0
-41 -38 0
-41 -47 0
-41 -57 0
-41 -80 0
-41 -93 0
-41 -107 0
-41 -122 0
-41 -138 0
-41 -155 0
-41 -173 0
-41 -192 0
-50 -30 0
-50 -38 0
-50 -47 0
-50 -57 0
-50 -93 0
-50 -107 0
-50 -138 0
-50 -212 0
-60 -47 0
-60 -68 0
-60 -93 0
-60 -107 0
-60 -122 0
-60 -173 0
-60 -192 0
-71 -68 0
-71 -80 0
-71 -107 0
-71 -122 0
-71 -155 0
-71 -173 0
-71 -192 0
-83 -68 0
-83 -80 0
-83 -107 0
-83 -122 0
-83 -138 0
-83 -155 0
-83 -173 0
-83 -192 0
-96 -68 0
-96 -80 0
-96 -93 0
-96 -107 0
-96 -138 0
-96 -155 0
-96 -192 0
-96 -212 0
-110 -80 0
-110 -93 0
-110 -107 0
-110 -122 0
-110 -155 0
-110 -212 0
-125 -93 0
-125 -107 0
-125 -138 0
-125 -173 0
-125 -192 0
-125 -212 0
-141 -107 0
-141 -122 0
-141 -138 0
-141 -155 0
-141 -173 0
-141 -212 0
-158 -138 0
-158 -155 0
-158 -192 0
-158 -212 0
-176 -155 0
-176 -173 0
-195 -173 0
-195 -192 0
-195 -212 0
-215 -173 0
-215 -192 0
-236 -192 0
-258 -212 0
-26 -24 0
-26 -31 0
-26 -48 0
-26 -94 0
-26 -108 0
-26 -123 0
-26 -174 0
-26 -213 0
-33 -39 0
-33 -48 0
-33 -69 0
-33 -108 0
-33 -139 0
-33 -156 0
-33 -174 0
-33 -193 0
-33 -213 0
-41 -39 0
-41 -48 0
-41 -58 0
-41 -69 0
-41 -94 0
-41 -108 0
-41 -123 0
-41 -139 0
-41 -156 0
-41 -174 0
-41 -193 0
-41 -213 0
-50 -39 0
-50 -48 0
-50 -58 0
-50 -69 0
-50 -108 0
-50 -123 0
-50 -156 0
-50 -234 0
-60 -58 0
-60 -81 0
-60 -108 0
-60 -123 0
-60 -139 0
-60 -193 0
-60 -213 0
-71 -81 0
-71 -94 0
-71 -123 0
-71 -139 0
-71 -174 0
-71 -193 0
-71 -213 0
-83 -81 0
-83 -94 0
-83 -123 0
-83 -139 0
-83 -156 0
-83 -174 0
-83 -193 0
-83 -213 0
-96 -81 0
-96 -94 0
-96 -108 0
-96 -123 0
-96 -156 0
-96 -174 0
-96 -213 0
-96 -234 0
-110 -94 0
-110 -108 0
-110 -123 0
-110 -139 0
-110 -174 0
-110 -234 0
-125 -108 0
-125 -123 0
-125 -156 0
-125 -193 0
-125 -213 0
-125 -234 0
-141 -123 0
-141 -139 0
-141 -156 0
-141 -174 0
-141 -193 0
-141 -234 0
-158 -156 0
-158 -174 0
-158 -213 0
-158 -234 0
-176 -174 0
-176 -193 0
-195 -193 0
-195 -213 0
-195 -234 0
-215 -193 0
-215 -213 0
-236 -213 0
-258 -234 0
-26 -32 0
-26 -40 0
-26 -59 0
-26 -109 0
-26 -124 0
-26 -140 0
-26 -194 0
-26 -235 0
-33 -49 0
-33 -59 0
-33 -82 0
-33 -124 0
-33 -157 0
-33 -175 0
-33 -194 0
-33 -214 0
-33 -235 0
-41 -49 0
-41 -59 0
-41 -70 0
-41 -82 0
-41 -109 0
-41 -124 0
-41 -140 0
-41 -157 0
-41 -175 0
-41 -194 0
-41 -214 0
-41 -235 0
-50 -49 0
-50 -59 0
-50 -70 0
-50 -82 0
-50 -124 0
-50 -140 0
-50 -175 0
-50 -257 0
-60 -70 0
-60 -95 0
-60 -124 0
-60 -140 0
-60 -157 0
-60 -214 0
-60 -235 0
-71 -95 0
-71 -109 0
-71 -140 0
-71 -157 0
-71 -194 0
-71 -214 0
-71 -235 0
-83 -95 0
-83 -109 0
-83 -140 0
-83 -157 0
-83 -175 0
-83 -194 0
-83 -214 0
-83 -235 0
-96 -95 0
-96 -109 0
-96 -124 0
-96 -140 0
-96 -175 0
-96 -194 0
-96 -235 0
-96 -257 0
-110 -109 0
-110 -124 0
-110 -140 0
-110 -157 0
-110 -194 0
-110 -257 0
-125 -124 0
-125 -140 0
-125 -175 0
-125 -214 0
-125 -235 0
-125 -257 0
-141 -140 0
-141 -157 0
-141 -175 0
-141 -194 0
-141 -214 0
-141 -257 0
-158 -175 0
-158 -194 0
-158 -235 0
-158 -257 0
-176 -194 0
-176 -214 0
-195 -214 0
-195 -235 0
-195 -257 0
-215 -214 0
-215 -235 0
-236 -235 0
-258 -257 0
-26 -51 0
-26 -61 0
-26 -84 0
-26 -142 0
-26 -159 0
-26 -177 0
-26 -237 0
-26 -282 0
-33 -72 0
-33 -84 0
-33 -111 0
-33 -159 0
-33 -196 0
-33 -216 0
-33 -237 0
-33 -259 0
-33 -282 0
-41 -72 0
-41 -84 0
-41 -97 0
-41 -111 0
-41 -142 0
-41 -159 0
-41 -177 0
-41 -196 0
-41 -216 0
-41 -237 0
-41 -259 0
-41 -282 0
-50 -72 0
-50 -84 0
-50 -97 0
-50 -111 0
-50 -159 0
-50 -177 0
-50 -216 0
-50 -306 0
-60 -97 0
-60 -126 0
-60 -159 0
-60 -177 0
-60 -196 0
-60 -259 0
-60 -282 0
-71 -126 0
-71 -142 0
-71 -177 0
-71 -196 0
-71 -237 0
-71 -259 0
-71 -282 0
-83 -126 0
-83 -142 0
-83 -177 0
-83 -196 0
-83 -216 0
-83 -237 0
-83 -259 0
-83 -282 0
-96 -126 0
-96 -142 0
-96 -159 0
-96 -177 0
-96 -216 0
-96 -237 0
-96 -282 0
-96 -306 0
-110 -142 0
-110 -159 0
-110 -177 0
-110 -196 0
-110 -237 0
-110 -306 0
-125 -159 0
-125 -177 0
-125 -216 0
-125 -259 0
-125 -282 0
-125 -306 0
-141 -177 0
-141 -196 0
-141 -216 0
-141 -237 0
-141 -259 0
-141 -306 0
-158 -216 0
-158 -237 0
-158 -282 0
-158 -306 0
-176 -237 0
-176 -259 0
-195 -259 0
-195 -282 0
-195 -306 0
-215 -259 0
-215 -282 0
-236 -282 0
-258 -306 0
-34 -11 0
-34 -16 0
-34 -29 0
-34 -67 0
-34 -79 0
-34 -92 0
-34 -137 0
-34 -172 0
-42 -22 0
-42 -29 0
-42 -46 0
-42 -79 0
-42 -106 0
-42 -121 0
-42 -137 0
-42 -154 0
-42 -172 0
-51 -22 0
-51 -29 0
-51 -37 0
-51 -46 0
-51 -67 0
-51 -79 0
-51 -92 0
-51 -106 0
-51 -121 0
-51 -137 0
-51 -154 0
-51 -172 0
-61 -22 0
-61 -29 0
-61 -37 0
-61 -46 0
-61 -79 0
-61 -92 0
-61 -121 0
-61 -191 0
-72 -37 0
-72 -56 0
-72 -79 0
-72 -92 0
-72 -106 0
-72 -154 0
-72 -172 0
-84 -56 0
-84 -67 0
-84 -92 0
-84 -106 0
-84 -137 0
-84 -154 0
-84 -172 0
-97 -56 0
-97 -67 0
-97 -92 0
-97 -106 0
-97 -121 0
-97 -137 0
-97 -154 0
-97 -172 0
-111 -56 0
-111 -67 0
-111 -79 0
-111 -92 0
-111 -121 0
-111 -137 0
-111 -172 0
-111 -191 0
-126 -67 0
-126 -79 0
-126 -92 0
-126 -106 0
-126 -137 0
-126 -191 0
-142 -79 0
-142 -92 0
-142 -121 0
-142 -154 0
-142 -172 0
-142 -191 0
-159 -92 0
-159 -106 0
-159 -121 0
-159 -137 0
-159 -154 0
-159 -191 0
-177 -121 0
-177 -137 0
-177 -172 0
-177 -191 0
-196 -137 0
-196 -154 0
-216 -154 0
-216 -172 0
-216 -191 0
-237 -154 0
-237 -172 0
-259 -172 0
-282 -191 0
-34 -17 0
-34 -23 0
-34 -38 0
-34 -80 0
-34 -93 0
-34 -107 0
-34 -155 0
-34 -192 0
-42 -30 0
-42 -38 0
-42 -57 0
-42 -93 0
-42 -122 0
-42 -138 0
-42 -155 0
-42 -173 0
-42 -192 0
-51 -30 0
-51 -38 0
-51 -47 0
-51 -57 0
-51 -80 0
-51 -93 0
-51 -107 0
-51 -122 0
-51 -138 0
-51 -155 0
-51 -173 0
-51 -192 0
-61 -30 0
-61 -38 0
-61 -47 0
-61 -57 0
-61 -93 0
-61 -107 0
-61 -138 0
-61 -212 0
-72 -47 0
-72 -68 0
-72 -93 0
-72 -107 0
-72 -122 0
-72 -173 0
-72 -192 0
-84 -68 0
-84 -80 0
-84 -107 0
-84 -122 0
-84 -155 0
-84 -173 0
-84 -192 0
-97 -68 0
-97 -80 0
-97 -107 0
-97 -122 0
-97 -138 0
-97 -155 0
-97 -173 0
-97 -192 0
-111 -68 0
-111 -80 0
-111 -93 0
-111 -107 0
-111 -138 0
-111 -155 0
-111 -192 0
-111 -212 0
-126 -80 0
-126 -93 0
-126 -107 0
-126 -122 0
-126 -155 0
-126 -212 0
-142 -93 0
-142 -107 0
-142 -138 0
-142 -173 0
-142 -192 0
-142 -212 0
-159 -107 0
-159 -122 0
-159 -138 0
-159 -155 0
-159 -173 0
-159 -212 0
-177 -138 0
-177 -155 0
-177 -192 0
-177 -212 0
-196 -155 0
-196 -173 0
-216 -173 0
-216 -192 0
-216 -212 0
-237 -173 0
-237 -192 0
-259 -192 0
-282 -212 0
-34 -24 0
-34 -31 0
-34 -48 0
-34 -94 0
-34 -108 0
-34 -123 0
-34 -174 0
-34 -213 0
-42 -39 0
-42 -48 0
-42 -69 0
-42 -108 0
-42 -139 0
-42 -156 0
-42 -174 0
-42 -193 0
-42 -213 0
-51 -39 0
-51 -48 0
-51 -58 0
-51 -69 0
-51 -94 0
-51 -108 0
-51 -123 0
-51 -139 0
-51 -156 0
-51 -174 0
-51 -193 0
-51 -213 0
-61 -39 0
-61 -48 0
-61 -58 0
-61 -69 0
-61 -108 0
-61 -123 0
-61 -156 0
-61 -234 0
-72 -58 0
-72 -81 0
-72 -108 0
-72 -123 0
-72 -139 0
-72 -193 0
-72 -213 0
-84 -81 0
-84 -94 0
-84 -123 0
-84 -139 0
-84 -174 0
-84 -193 0
-84 -213 0
-97 -81 0
-97 -94 0
-97 -123 0
-97 -139 0
-97 -156 0
-97 -174 0
-97 -193 0
-97 -213 0
-111 -81 0
-111 -94 0
-111 -108 0
-111 -123 0
-111 -156 0
-111 -174 0
-111 -213 0
-111 -234 0
-126 -94 0
-126 -108 0
-126 -123 0
-126 -139 0
-126 -174 0
-126 -234 0
-142 -108 0
-142 -123 0
-142 -156 0
-142 -193 0
-142 -213 0
-142 -234 0
-159 -123 0
-159 -139 0
-159 -156 0
-159 -174 0
-159 -193 0
-159 -234 0
-177 -156 0
-177 -174 0
-177 -213 0
-177 -234 0
-196 -174 0
-196 -193 0
-216 -193 0
-216 -213 0
-216 -234 0
-237 -193 0
-237 -213 0
-259 -213 0
-282 -234 0
-34 -32 0
-34 -40 0
-34 -59 0
-34 -109 0
-34 -124 0
-34 -140 0
-34 -194 0
-34 -235 0
-42 -49 0
-42 -59 0
-42 -82 0
-42 -124 0
-42 -157 0
-42 -175 0
-42 -194 0
-42 -214 0
-42 -235 0
-51 -49 0
-51 -59 0
-51 -70 0
-51 -82 0
-51 -109 0
-51 -124 0
-51 -140 0
-51 -157 0
-51 -175 0
-51 -194 0
-51 -214 0
-51 -235 0
-61 -49 0
-61 -59 0
-61 -70 0
-61 -82 0
-61 -124 0
-61 -140 0
-61 -175 0
-61 -257 0
-72 -70 0
-72 -95 0
-72 -124 0
-72 -140 0
-72 -157 0
-72 -214 0
-72 -235 0
-84 -95 0
-84 -109 0
-84 -140 0
-84 -157 0
-84 -194 0
-84 -214 0
-84 -235 0
-97 -95 0
-97 -109 0
-97 -140 0
-97 -157 0
-97 -175 0
-97 -194 0
-97 -214 0
-97 -235 0
-111 -95 0
-111 -109 0
-111 -124 0
-111 -140 0
-111 -175 0
-111 -194 0
-111 -235 0
-111 -257 0
-126 -109 0
-126 -124 0
-126 -140 0
-126 -157 0
-126 -194 0
-126 -257 0
-142 -124 0
-142 -140 0
-142 -175 0
-142 -214 0
-142 -235 0
-142 -257 0
-159 -140 0
-159 -157 0
-159 -175 0
-159 -194 0
-159 -214 0
-159 -257 0
-177 -175 0
-177 -194 0
-177 -235 0
-177 -257 0
-196 -194 0
-196 -214 0
-216 -214 0
-216 -235 0
-216 -257 0
-237 -214 0
-237 -235 0
-259 -235 0
-282 -257 0
-34 -41 0
-34 -50 0
-34 -71 0
-34 -125 0
-34 -141 0
-34 -158 0
-34 -215 0
-34 -258 0
-42 -60 0
-42 -71 0
-42 -96 0
-42 -141 0
-42 -176 0
-42 -195 0
-42 -215 0
-42 -236 0
-42 -258 0
-51 -60 0
-51 -71 0
-51 -83 0
-51 -96 0
-51 -125 0
-51 -141 0
-51 -158 0
-51 -176 0
-51 -195 0
-51 -215 0
-51 -236 0
-51 -258 0
-61 -60 0
-61 -71 0
-61 -83 0
-61 -96 0
-61 -141 0
-61 -158 0
-61 -195 0
-61 -281 0
-72 -83 0
-72 -110 0
-72 -141 0
-72 -158 0
-72 -176 0
-72 -236 0
-72 -258 0
-84 -110 0
-84 -125 0
-84 -158 0
-84 -176 0
-84 -215 0
-84 -236 0
-84 -258 0
-97 -110 0
-97 -125 0
-97 -158 0
-97 -176 0
-97 -195 0
-97 -215 0
-97 -236 0
-97 -258 0
-111 -110 0
-111 -125 0
-111 -141 0
-111 -158 0
-111 -195 0
-111 -215 0
-111 -258 0
-111 -281 0
-126 -125 0
-126 -141 0
-126 -158 0
-126 -176 0
-126 -215 0
-126 -281 0
-142 -141 0
-142 -158 0
-142 -195 0
-142 -236 0
-142 -258 0
-142 -281 0
-159 -158 0
-159 -176 0
-159 -195 0
-159 -215 0
-159 -236 0
-159 -281 0
-177 -195 0
-177 -215 0
-177 -258 0
-177 -281 0
-196 -215 0
-196 -236 0
-216 -236 0
-216 -258 0
-216 -281 0
-237 -236 0
-237 -258 0
-259 -258 0
-282 -281 0
